benchmark_str_length/p1_10_12-0.dzn
Alphabet = {A,C,G,T};
ns = 10;
nc = 12;
sl = 12;
neighbours = [| I(A),I(A),I(A),I(A),I(A),I(C),I(C),I(A),I(A),I(A),I(T),I(A) | I(C),I(A),I(C),I(A),I(A),I(A),I(C),I(C),I(A),I(A),I(A),I(A) | I(A),I(A),I(C),I(A),I(C),I(G),I(A),I(A),I(A),I(A),I(C),I(A) | I(A),I(C),I(A),I(C),I(A),I(A),I(A),I(A),I(A),I(A),I(A),I(A) | I(A),I(A),I(C),I(A),I(C),I(C),I(A),I(A),I(C),I(A),I(A),I(A) | I(A),I(C),I(C),I(A),I(C),I(C),I(A),I(C),I(C),I(A),I(A),I(A) | I(A),I(C),I(A),I(A),I(A),I(A),I(A),I(A),I(C),I(A),I(A),I(A) | I(C),I(A),I(A),I(C),I(A),I(C),I(C),I(A),I(C),I(A),I(G),I(C) | I(A),I(A),I(A),I(A),I(A),I(C),I(C),I(C),I(C),I(A),I(C),I(A) | I(G),I(A),I(A),I(C),I(A),I(A),I(A),I(C),I(A),I(A),I(A),I(A) |];
