benchmark_str_length/p1_10_12-0.txt
{
	"num_strings": 10,
	"alphabet": "ACGT",
	"strings": [
		"AAAAACCAAATA",
		"CACAAACCAAAA",
		"AACACGAAAACA",
		"ACACAAAAAAAA",
		"AACACCAACAAA",
		"ACCACCACCAAA",
		"ACAAAAAACAAA",
		"CAACACCACAGC",
		"AAAAACCCCACA",
		"GAACAAACAAAA"
	],
	"str_length":[12,12,12,12,12,12,12,12,12,12]
}